
(set-logic ALL) 

(declare-datatype MyList ((Nil) (Cons (head Real) (tail MyList)) )) 
(declare-fun l0 () MyList) 
(declare-fun l1 () MyList) 
(declare-fun l2 () MyList) 
(declare-fun l3 () MyList) 
(declare-fun i0 () Real) 
(declare-fun i1 () Real) 
(assert (not (= l3 l1)) )
(assert (and (= l1 l3) (= l2 l3) (= l1 Nil) (= l3 Nil)) )
(assert (or (= l0 Nil) (= l3 Nil) (= l0 Nil) (= l2 l1)) )
(assert (is-Nil Nil) )
(assert (and (is-Cons l3) (= l0 l0) (is-Cons Nil) (is-Nil l2)) )
(assert (is-Cons l1) )
(assert (and (= l3 Nil) (= l2 l3) (= l1 l1) (= l3 Nil)) )
(assert (not (= l3 l2)) )
(check-sat)
